1588509
29 6 14521
6 11 47990
11 66 13370
66 26 57991
26 55 61621
55 34 20835
34 46 36286
46 43 69394
43 7 52950
7 38 28523
38 67 15200
67 64 14572
64 41 28668
41 25 5278
25 30 1249
30 21 34374
21 3 17216
3 42 13084
42 32 5759
32 56 1427
56 40 3489
40 5 3130
5 1 16009
1 12 10465
12 61 10412
61 24 5437
24 63 26977
63 16 14689
16 59 10880
59 36 8563
36 50 24707
50 28 10810
28 31 65445
31 22 39447
22 52 46274
52 33 101509
33 57 88918
57 18 27906
18 10 28652
10 14 62052
14 44 62420
44 53 84806
53 37 6554
37 62 30446
62 39 8740
39 51 11004
51 35 8926
35 68 19070
68 8 34471
8 15 6874
15 58 6904
58 9 1777
9 17 5356
17 27 1445
27 45 8214
45 65 16726
65 2 19463
2 48 7938
48 4 7248
4 20 4440
20 47 12843
47 13 9114
13 54 13536
54 19 26950
19 49 8895
49 23 4353
23 60 7498
60 29 6419
